
  12    4
  10   10   10   10

   0   0   0   0   0   4 2 3 4 11 
  10  10  10  10  10   3 9 6 5 
   9  10  10  10  10   3 9 8 5 
   8  10  10  10  10   2 10 7 
   7  10  10  10  10   1 7 
   9  10  10  10  10   1 8 
   7  10  10  10  10   1 12
   9  10  10  10  10   1 12
   6  10  10  10  10   1 12
   9  10  10  10  10   1 12
   5  10  10  10  10   1 12
   0   0   0   0   0   0 
